Maximize

  x_0 + x_1 + x_2 + x_3 + x_4

Subject To


   c0: 2 _x_0 + 7 _x_1 + 20 _x_2 + 45 _x_3 + 50 _x_4 + 75 _x_5 + 101 _x_6 - x_0 =  0 
   c2: _x_7 + _x_8 + _x_9 + _x_10 + _x_11 + _x_12 + _x_13 =  1 
   c1: 2 _x_14 + 7 _x_15 + 20 _x_16 + 45 _x_17 + 50 _x_18 + 75 _x_19 + 101 _x_20 - x_1 =  0 
   c3: _x_21 + _x_22 + _x_23 + _x_24 + _x_25 + _x_26 + _x_27 =  1 
   c2: 2 _x_28 + 7 _x_29 + 20 _x_30 + 45 _x_31 + 50 _x_32 + 75 _x_33 + 101 _x_34 - x_2 =  0 
   c4: _x_35 + _x_36 + _x_37 + _x_38 + _x_39 + _x_40 + _x_41 =  1 
   c3: 2 _x_42 + 7 _x_43 + 20 _x_44 + 45 _x_45 + 50 _x_46 + 75 _x_47 + 101 _x_48 - x_3 =  0 
   c5: _x_49 + _x_50 + _x_51 + _x_52 + _x_53 + _x_54 + _x_55 =  1 
   c4: 2 _x_56 + 7 _x_57 + 20 _x_58 + 45 _x_59 + 50 _x_60 + 75 _x_61 + 101 _x_62 - x_4 =  0 
   c6: _x_63 + _x_64 + _x_65 + _x_66 + _x_67 + _x_68 + _x_69 =  1 

   b0: _x_70 = 1 -> x_0 - x_1 >=  1 
   b1: _x_71 = 1 -> x_1 - x_0 >=  1 
   b2: _x_70 + _x_71  =  1
   b3: _x_72 = 1 -> x_0 - x_2 >=  1 
   b4: _x_73 = 1 -> x_2 - x_0 >=  1 
   b5: _x_72 + _x_73  =  1
   b6: _x_74 = 1 -> x_0 - x_3 >=  1 
   b7: _x_75 = 1 -> x_3 - x_0 >=  1 
   b8: _x_74 + _x_75  =  1
   b9: _x_76 = 1 -> x_0 - x_4 >=  1 
   b10: _x_77 = 1 -> x_4 - x_0 >=  1 
   b11: _x_76 + _x_77  =  1
   b12: _x_78 = 1 -> x_1 - x_2 >=  1 
   b13: _x_79 = 1 -> x_2 - x_1 >=  1 
   b14: _x_78 + _x_79  =  1
   b15: _x_80 = 1 -> x_1 - x_3 >=  1 
   b16: _x_81 = 1 -> x_3 - x_1 >=  1 
   b17: _x_80 + _x_81  =  1
   b18: _x_82 = 1 -> x_1 - x_4 >=  1 
   b19: _x_83 = 1 -> x_4 - x_1 >=  1 
   b20: _x_82 + _x_83  =  1
   b21: _x_84 = 1 -> x_2 - x_3 >=  1 
   b22: _x_85 = 1 -> x_3 - x_2 >=  1 
   b23: _x_84 + _x_85  =  1
   b24: _x_86 = 1 -> x_2 - x_4 >=  1 
   b25: _x_87 = 1 -> x_4 - x_2 >=  1 
   b26: _x_86 + _x_87  =  1
   b27: _x_88 = 1 -> x_3 - x_4 >=  1 
   b28: _x_89 = 1 -> x_4 - x_3 >=  1 
   b29: _x_88 + _x_89  =  1

Binary

 _x_0 _x_1 _x_2 _x_3 _x_4 _x_5 _x_6 _x_7 _x_8 _x_9 _x_10 _x_11 _x_12 _x_13 _x_14 _x_15 _x_16 _x_17 _x_18 _x_19 _x_20 _x_21 _x_22 _x_23 _x_24 _x_25 _x_26 _x_27 _x_28 _x_29 _x_30 _x_31 _x_32 _x_33 _x_34 _x_35 _x_36 _x_37 _x_38 _x_39 _x_40 _x_41 _x_42 _x_43 _x_44 _x_45 _x_46 _x_47 _x_48 _x_49 _x_50 _x_51 _x_52 _x_53 _x_54 _x_55 _x_56 _x_57 _x_58 _x_59 _x_60 _x_61 _x_62 _x_63 _x_64 _x_65 _x_66 _x_67 _x_68 _x_69 _x_70 _x_71 _x_72 _x_73 _x_74 _x_75 _x_76 _x_77 _x_78 _x_79 _x_80 _x_81 _x_82 _x_83 _x_84 _x_85 _x_86 _x_87 _x_88 _x_89

General

 x_0 x_1 x_2 x_3 x_4

End


